presolving:
(round 1, fast)       531 del vars, 18837 del conss, 0 add conss, 531 chg bounds, 18450 chg sides, 0 chg coeffs, 0 upgd conss, 0 impls, 36594 clqs
   (0.2s) running MILP presolver
   (0.3s) MILP presolver found nothing
(round 2, exhaustive) 531 del vars, 18837 del conss, 0 add conss, 531 chg bounds, 18450 chg sides, 0 chg coeffs, 36594 upgd conss, 0 impls, 36594 clqs
   (0.7s) probing: 51/18306 (0.3%) - 0 fixings, 0 aggregations, 0 implications, 0 bound changes
   (0.7s) probing aborted: 50/50 successive totally useless probings
   (0.8s) symmetry computation started: requiring (bin +, int -, cont +), (fixed: bin -, int +, cont -)
   (0.8s) no symmetry present
presolving (3 rounds: 3 fast, 2 medium, 2 exhaustive):
 531 deleted vars, 18837 deleted constraints, 0 added constraints, 531 tightened bounds, 0 added holes, 18450 changed sides, 0 changed coefficients
 0 implications, 36594 cliques
presolved problem has 18306 variables (18306 bin, 0 int, 0 impl, 0 cont) and 36594 constraints
  36594 constraints of type <setppc>
Presolving Time: 0.72

 time | node  | left  |LP iter|LP it/n|mem/heur|mdpt |vars |cons |rows |cuts |sepa|confs|strbr|  dualbound   | primalbound  |  gap   | compl. 
p 1.0s|     1 |     0 |     0 |     - |  clique|   0 |  18k|  36k|  36k|   0 |  0 |   0 |   0 | 0.000000e+00 |-1.360071e+05 |    Inf | unknown
p 1.4s|     1 |     0 |   496 |     - | vbounds|   0 |  18k|  36k|  36k|   0 |  0 |  24 |   0 | 0.000000e+00 |-1.173965e+05 |    Inf | unknown
  2.1s|     1 |     0 |  3014 |     - |   259M |   0 |  18k|  36k|  36k|   0 |  0 |  24 |   0 |-4.173729e+04 |-1.173965e+05 | 181.27%| unknown
r 2.1s|     1 |     0 |  3014 |     - |rounding|   0 |  18k|  36k|  36k|   0 |  0 |  24 |   0 |-4.173729e+04 |-5.471523e+04 |  31.09%| unknown
  4.6s|     1 |     0 |  3192 |     - |   272M |   0 |  18k|  36k|  36k|   4 |  1 |  24 |   0 |-4.177973e+04 |-5.471523e+04 |  30.96%| unknown
  7.1s|     1 |     0 |  3411 |     - |   282M |   0 |  18k|  36k|  36k|  14 |  2 |  24 |   0 |-4.187524e+04 |-5.471523e+04 |  30.66%| unknown
r 7.1s|     1 |     0 |  3411 |     - |rounding|   0 |  18k|  36k|  36k|  14 |  2 |  24 |   0 |-4.187524e+04 |-5.425288e+04 |  29.56%| unknown
  9.7s|     1 |     0 |  3661 |     - |   291M |   0 |  18k|  36k|  36k|  22 |  3 |  24 |   0 |-4.192938e+04 |-5.425288e+04 |  29.39%| unknown
 11.8s|     1 |     0 |  3920 |     - |   302M |   0 |  18k|  36k|  36k|  28 |  4 |  24 |   0 |-4.196047e+04 |-5.425288e+04 |  29.30%| unknown
 17.9s|     1 |     0 |  4149 |     - |   315M |   0 |  18k|  36k|  36k|  37 |  5 |  24 |   0 |-4.198398e+04 |-5.425288e+04 |  29.22%| unknown
 20.5s|     1 |     0 |  4390 |     - |   319M |   0 |  18k|  36k|  36k|  43 |  6 |  24 |   0 |-4.201758e+04 |-5.425288e+04 |  29.12%| unknown
 23.0s|     1 |     0 |  4641 |     - |   323M |   0 |  18k|  36k|  36k|  52 |  7 |  24 |   0 |-4.205592e+04 |-5.425288e+04 |  29.00%| unknown
 26.6s|     1 |     0 |  4881 |     - |   333M |   0 |  18k|  36k|  36k|  59 |  8 |  24 |   0 |-4.208285e+04 |-5.425288e+04 |  28.92%| unknown
 29.1s|     1 |     0 |  4974 |     - |   338M |   0 |  18k|  36k|  36k|  63 |  9 |  24 |   0 |-4.208984e+04 |-5.425288e+04 |  28.90%| unknown
 31.5s|     1 |     0 |  5105 |     - |   342M |   0 |  18k|  36k|  36k|  68 | 10 |  24 |   0 |-4.210099e+04 |-5.425288e+04 |  28.86%| unknown
 time | node  | left  |LP iter|LP it/n|mem/heur|mdpt |vars |cons |rows |cuts |sepa|confs|strbr|  dualbound   | primalbound  |  gap   | compl. 
 31.9s|     1 |     0 |  5224 |     - |   346M |   0 |  18k|  36k|  36k|  73 | 11 |  24 |   0 |-4.210841e+04 |-5.425288e+04 |  28.84%| unknown
 32.3s|     1 |     0 |  5345 |     - |   350M |   0 |  18k|  36k|  36k|  78 | 12 |  24 |   0 |-4.211670e+04 |-5.425288e+04 |  28.82%| unknown
 32.7s|     1 |     0 |  5471 |     - |   354M |   0 |  18k|  36k|  36k|  83 | 13 |  24 |   0 |-4.212306e+04 |-5.425288e+04 |  28.80%| unknown
r32.8s|     1 |     0 |  5471 |     - |rounding|   0 |  18k|  36k|  36k|  83 | 13 |  24 |   0 |-4.212306e+04 |-5.416378e+04 |  28.58%| unknown
 33.1s|     1 |     0 |  5609 |     - |   358M |   0 |  18k|  36k|  36k|  89 | 14 |  24 |   0 |-4.213365e+04 |-5.416378e+04 |  28.55%| unknown
 33.5s|     1 |     0 |  5696 |     - |   362M |   0 |  18k|  36k|  36k|  94 | 15 |  24 |   0 |-4.213783e+04 |-5.416378e+04 |  28.54%| unknown
 33.8s|     1 |     0 |  5779 |     - |   366M |   0 |  18k|  36k|  36k|  97 | 16 |  24 |   0 |-4.214078e+04 |-5.416378e+04 |  28.53%| unknown
 34.1s|     1 |     0 |  5816 |     - |   370M |   0 |  18k|  36k|  36k|  99 | 17 |  24 |   0 |-4.214200e+04 |-5.416378e+04 |  28.53%| unknown
 34.5s|     1 |     0 |  5840 |     - |   374M |   0 |  18k|  36k|  36k| 100 | 18 |  24 |   0 |-4.214297e+04 |-5.416378e+04 |  28.52%| unknown
 34.8s|     1 |     0 |  5885 |     - |   378M |   0 |  18k|  36k|  36k| 103 | 19 |  24 |   0 |-4.214363e+04 |-5.416378e+04 |  28.52%| unknown
 35.2s|     1 |     0 |  5924 |     - |   382M |   0 |  18k|  36k|  36k| 104 | 20 |  24 |   0 |-4.214424e+04 |-5.416378e+04 |  28.52%| unknown
d36.8s|     1 |     0 |  7997 |     - |farkasdi|   0 |  18k|  36k|  36k|   0 | 22 |  24 |   0 |-4.214424e+04 |-4.283346e+04 |   1.64%| unknown
L38.5s|     1 |     0 | 11787 |     - |    rens|   0 |  18k|  36k|  36k| 104 | 22 |  28 |   0 |-4.214424e+04 |-4.259602e+04 |   1.07%| unknown
 38.7s|     1 |     0 | 11787 |     - |   386M |   0 |  18k|  36k|  36k| 104 | 22 |  28 |   0 |-4.214424e+04 |-4.259602e+04 |   1.07%| unknown
 38.8s|     1 |     0 | 11787 |     - |   386M |   0 |  18k|  36k|  11k| 104 | 22 |  28 |   0 |-4.214424e+04 |-4.259602e+04 |   1.07%| unknown
 time | node  | left  |LP iter|LP it/n|mem/heur|mdpt |vars |cons |rows |cuts |sepa|confs|strbr|  dualbound   | primalbound  |  gap   | compl. 
 39.1s|     1 |     0 | 11787 |     - |   386M |   0 |  18k|  10k|  10k| 104 | 23 |  28 |   0 |-4.214424e+04 |-4.259602e+04 |   1.07%| unknown
(run 1, node 1) restarting after 12069 global fixings of integer variables

(restart) converted 104 cuts from the global cut pool into linear constraints

presolving:
(round 1, fast)       12069 del vars, 4 del conss, 0 add conss, 0 chg bounds, 0 chg sides, 744 chg coeffs, 0 upgd conss, 0 impls, 10216 clqs
   (39.2s) running MILP presolver
   (39.2s) MILP presolver found nothing
(round 2, exhaustive) 12069 del vars, 5 del conss, 0 add conss, 0 chg bounds, 0 chg sides, 744 chg coeffs, 104 upgd conss, 0 impls, 10216 clqs
presolving (3 rounds: 3 fast, 2 medium, 2 exhaustive):
 12069 deleted vars, 5 deleted constraints, 0 added constraints, 0 tightened bounds, 0 added holes, 0 changed sides, 744 changed coefficients
 0 implications, 10216 cliques
presolved problem has 6237 variables (6237 bin, 0 int, 0 impl, 0 cont) and 10259 constraints
     27 constraints of type <knapsack>
  10216 constraints of type <setppc>
     16 constraints of type <logicor>
Presolving Time: 0.85
transformed 7/9 original solutions to the transformed problem space

 time | node  | left  |LP iter|LP it/n|mem/heur|mdpt |vars |cons |rows |cuts |sepa|confs|strbr|  dualbound   | primalbound  |  gap   | compl. 
 40.0s|     1 |     0 | 14753 |     - |   365M |   0 |6237 |  10k|  10k|   0 |  0 |  28 |   0 |-4.214424e+04 |-4.259602e+04 |   1.07%| unknown
 40.0s|     1 |     0 | 14753 |     - |   365M |   0 |6237 |  10k|  10k|   0 |  0 |  28 |   0 |-4.214424e+04 |-4.259602e+04 |   1.07%| unknown
 41.5s|     1 |     0 | 14894 |     - |   369M |   0 |6237 |  10k|  10k|   2 |  1 |  28 |   0 |-4.215342e+04 |-4.259602e+04 |   1.05%| unknown
 41.5s|     1 |     0 | 14894 |     - |   369M |   0 |6237 |  10k|  10k|   2 |  1 |  28 |   0 |-4.215342e+04 |-4.259602e+04 |   1.05%| unknown
 42.5s|     1 |     0 | 14951 |     - |   373M |   0 |6237 |  10k|  10k|   7 |  2 |  28 |   0 |-4.215564e+04 |-4.259602e+04 |   1.04%| unknown
 42.6s|     1 |     0 | 14951 |     - |   373M |   0 |6237 |  10k|  10k|   7 |  2 |  28 |   0 |-4.215564e+04 |-4.259602e+04 |   1.04%| unknown
 43.2s|     1 |     0 | 15024 |     - |   374M |   0 |6237 |  10k|  10k|   8 |  3 |  28 |   0 |-4.215658e+04 |-4.259602e+04 |   1.04%| unknown
 43.3s|     1 |     0 | 15024 |     - |   374M |   0 |6237 |  10k|  10k|   8 |  3 |  28 |   0 |-4.215658e+04 |-4.259602e+04 |   1.04%| unknown
 44.0s|     1 |     0 | 15103 |     - |   375M |   0 |6237 |  10k|  10k|  10 |  4 |  28 |   0 |-4.215794e+04 |-4.259602e+04 |   1.04%| unknown
 44.1s|     1 |     0 | 15103 |     - |   375M |   0 |6237 |  10k|  10k|  10 |  4 |  28 |   0 |-4.215794e+04 |-4.259602e+04 |   1.04%| unknown
 44.8s|     1 |     0 | 15140 |     - |   376M |   0 |6237 |  10k|  10k|  13 |  5 |  28 |   0 |-4.215829e+04 |-4.259602e+04 |   1.04%| unknown
 44.8s|     1 |     0 | 15140 |     - |   377M |   0 |6237 |  10k|  10k|  13 |  5 |  28 |   0 |-4.215829e+04 |-4.259602e+04 |   1.04%| unknown
 45.6s|     1 |     0 | 15238 |     - |   378M |   0 |6237 |  10k|  10k|  18 |  6 |  28 |   0 |-4.216018e+04 |-4.259602e+04 |   1.03%| unknown
 45.6s|     1 |     0 | 15238 |     - |   378M |   0 |6237 |  10k|9978 |  18 |  6 |  28 |   0 |-4.216018e+04 |-4.259602e+04 |   1.03%| unknown
 46.4s|     1 |     0 | 15310 |     - |   379M |   0 |6237 |9976 |9981 |  21 |  7 |  28 |   0 |-4.216157e+04 |-4.259602e+04 |   1.03%| unknown
 time | node  | left  |LP iter|LP it/n|mem/heur|mdpt |vars |cons |rows |cuts |sepa|confs|strbr|  dualbound   | primalbound  |  gap   | compl. 
 46.4s|     1 |     0 | 15310 |     - |   379M |   0 |6237 |9976 |9958 |  21 |  7 |  28 |   0 |-4.216157e+04 |-4.259602e+04 |   1.03%| unknown
 47.3s|     1 |     0 | 15403 |     - |   380M |   0 |6237 |9953 |9960 |  23 |  8 |  28 |   0 |-4.216319e+04 |-4.259602e+04 |   1.03%| unknown
 47.3s|     1 |     0 | 15403 |     - |   380M |   0 |6237 |9953 |9913 |  23 |  8 |  28 |   0 |-4.216319e+04 |-4.259602e+04 |   1.03%| unknown
 48.1s|     1 |     0 | 15481 |     - |   381M |   0 |6237 |9906 |9919 |  29 |  9 |  28 |   0 |-4.216442e+04 |-4.259602e+04 |   1.02%| unknown
 48.1s|     1 |     0 | 15481 |     - |   381M |   0 |6237 |9906 |9884 |  29 |  9 |  28 |   0 |-4.216442e+04 |-4.259602e+04 |   1.02%| unknown
 48.8s|     1 |     0 | 15538 |     - |   382M |   0 |6237 |9871 |9887 |  32 | 10 |  28 |   0 |-4.216525e+04 |-4.259602e+04 |   1.02%| unknown
 48.8s|     1 |     0 | 15538 |     - |   382M |   0 |6237 |9871 |9876 |  32 | 10 |  28 |   0 |-4.216525e+04 |-4.259602e+04 |   1.02%| unknown
 49.0s|     1 |     0 | 15585 |     - |   383M |   0 |6237 |9860 |9875 |  35 | 11 |  28 |   0 |-4.216628e+04 |-4.259602e+04 |   1.02%| unknown
 49.0s|     1 |     0 | 15585 |     - |   384M |   0 |6237 |9860 |9842 |  35 | 11 |  28 |   0 |-4.216628e+04 |-4.259602e+04 |   1.02%| unknown
*51.6s|     1 |     0 | 20258 |     - |strongbr|   0 |6237 |9820 |9842 |  35 | 11 |  38 |   0 |-4.216628e+04 |-4.221379e+04 |   0.11%| unknown
 51.6s|     1 |     0 | 20258 |     - |   384M |   0 |6237 |9820 |9842 |  35 | 11 |  38 |   1 |-4.221379e+04 |-4.221379e+04 |   0.00%| unknown

SCIP Status        : problem is solved [optimal solution found]
Solving Time (sec) : 51.59
Solving Nodes      : 1 (total of 2 nodes in 2 runs)
Primal Bound       : -4.22137871726107e+04 (11 solutions)
Dual Bound         : -4.22137871726107e+04
Gap                : 0.00 %
Solve Status: optimal
Solve Time: 51.60 seconds
Objective Value: -42213.79
